
Gurobi 13.0.2 (win64) logging started Thu Jul 23 06:10:29 2026

Set parameter LogFile to value "E:\codes\ExactEBRP\results\gf_cplex_equivalent_gurobi_replica_round28\runs\stage2__tight_T_seed4101__c3_replica__300s\external\native_logs\R.0.1.0.1.0.0.0.0.0.1_terminal_mip.gurobi.log"
Gurobi Optimizer version 13.0.2 build v13.0.2rc1 (win64 - Windows 10.0 (19045.2))

CPU model: 12th Gen Intel(R) Core(TM) i7-12700KF, instruction set [SSE2|AVX|AVX2]
Thread count: 12 physical cores, 20 logical processors, using up to 1 threads

Non-default parameters:
TimeLimit  1.1018883239999997e+02
MIPGap  0
MIPGapAbs  0
LogToConsole  0
Threads  1

Optimize a model with 11897 rows, 3372 columns and 67355 nonzeros (Min)
Model fingerprint: 0x6eb1308d
Model has 21 linear objective coefficients
Variable types: 1683 continuous, 1689 integer (1489 binary)
Coefficient statistics:
  Matrix range     [7e-03, 2e+04]
  Objective range  [7e-03, 1e+00]
  Bounds range     [2e-01, 9e+02]
  RHS range        [2e-01, 5e+04]

Presolve removed 1603 rows and 94 columns
Presolve time: 0.22s
Presolved: 10294 rows, 3278 columns, 68243 nonzeros
Variable types: 1629 continuous, 1649 integer (1467 binary)

Root relaxation: objective 4.134581e-01, 2452 iterations, 0.12 seconds (0.29 work units)

    Nodes    |    Current Node    |     Objective Bounds      |     Work
 Expl Unexpl |  Obj  Depth IntInf | Incumbent    BestBd   Gap | It/Node Time

     0     0    0.41346    0  139          -    0.41346      -     -    0s
     0     0    0.43008    0  157          -    0.43008      -     -    0s
     0     0    0.46668    0  251          -    0.46668      -     -    0s
     0     0    0.46781    0  242          -    0.46781      -     -    1s
     0     0    0.49926    0  299          -    0.49926      -     -    1s
     0     0    0.50252    0  261          -    0.50252      -     -    1s
     0     0    0.55767    0  284          -    0.55767      -     -    2s
     0     0 infeasible    0               - infeasible      -     -    2s

Cutting planes:
  Learned: 9
  Cover: 26
  Implied bound: 107
  Clique: 10
  MIR: 131
  StrongCG: 7
  Flow cover: 58
  GUB cover: 1
  Zero half: 3
  Network: 10
  RLT: 9
  Relax-and-lift: 77
  BQP: 2

Explored 1 nodes (10304 simplex iterations) in 2.58 seconds (4.70 work units)
Thread count was 1 (of 20 available processors)

Solution count 0

Model is infeasible
Best objective -, best bound -, gap -

User-callback calls 1416, time in user-callback 0.00 sec
